NAME : portcgen-15-14
COMMENT : portcgen N=15, seed=14
TYPE : TSP
DIMENSION : 15
EDGE_WEIGHT_TYPE : EUC_2D
NODE_COORD_SECTION
1 -671170 -282222
2 -380591 464980
3 95366 -156624
4 161423 -117859
5 422443 -161947
6 183471 -184937
7 274775 -70080
8 374956 -66376
9 -57744 -289557
10 -209117 -62786
11 -170799 -77081
12 16943 75574
13 -316401 -85276
14 230273 564028
15 130331 286145
